60
1 0 11
2 0 11
2 1 8
3 0 6
3 1 12
3 2 5
4 0 12
4 1 4
4 2 10
4 3 6
5 0 12
5 1 2
5 2 2
5 3 10
5 4 11
6 0 6
6 1 10
6 2 12
6 3 5
6 4 4
6 5 7
7 0 5
7 1 10
7 2 3
7 3 3
7 4 5
7 5 9
7 6 12
8 0 5
8 1 6
8 2 11
8 3 3
8 4 7
8 5 2
8 6 4
8 7 8
9 0 9
9 1 3
9 2 4
9 3 6
9 4 9
9 5 8
9 6 6
9 7 11
9 8 8
10 0 8
10 1 6
10 2 11
10 3 6
10 4 9
10 5 8
10 6 1
10 7 6
10 8 1
10 9 12
11 0 11
11 1 6
11 2 6
11 3 8
11 4 12
11 5 5
11 6 10
11 7 5
11 8 1
11 9 1
11 10 11
12 0 11
12 1 2
12 2 6
12 3 11
12 4 8
12 5 11
12 6 8
12 7 1
12 8 11
12 9 10
12 10 8
12 11 2
13 0 6
13 1 8
13 2 11
13 3 6
13 4 11
13 5 4
13 6 5
13 7 11
13 8 2
13 9 10
13 10 9
13 11 5
13 12 12
14 0 4
14 1 6
14 2 1
14 3 3
14 4 7
14 5 6
14 6 3
14 7 7
14 8 5
14 9 12
14 10 8
14 11 2
14 12 1
14 13 4
15 0 6
15 1 7
15 2 11
15 3 3
15 4 6
15 5 12
15 6 11
15 7 7
15 8 11
15 9 3
15 10 8
15 11 2
15 12 9
15 13 12
15 14 8
16 0 8
16 1 1
16 2 11
16 3 7
16 4 7
16 5 10
16 6 6
16 7 8
16 8 10
16 9 1
16 10 9
16 11 5
16 12 3
16 13 12
16 14 1
16 15 3
17 0 3
17 1 11
17 2 11
17 3 3
17 4 11
17 5 10
17 6 10
17 7 8
17 8 5
17 9 12
17 10 10
17 11 5
17 12 7
17 13 4
17 14 2
17 15 11
17 16 9
18 0 1
18 1 6
18 2 7
18 3 3
18 4 3
18 5 6
18 6 12
18 7 11
18 8 5
18 9 11
18 10 9
18 11 2
18 12 2
18 13 4
18 14 7
18 15 2
18 16 4
18 17 12
19 0 4
19 1 2
19 2 9
19 3 10
19 4 12
19 5 2
19 6 4
19 7 6
19 8 10
19 9 3
19 10 4
19 11 10
19 12 10
19 13 2
19 14 12
19 15 4
19 16 6
19 17 8
19 18 4
20 0 6
20 1 6
20 2 11
20 3 2
20 4 9
20 5 3
20 6 2
20 7 9
20 8 5
20 9 5
20 10 11
20 11 4
20 12 7
20 13 1
20 14 2
20 15 12
20 16 7
20 17 1
20 18 5
20 19 1
21 0 7
21 1 2
21 2 1
21 3 9
21 4 6
21 5 3
21 6 8
21 7 12
21 8 7
21 9 1
21 10 10
21 11 2
21 12 5
21 13 1
21 14 11
21 15 7
21 16 4
21 17 7
21 18 9
21 19 2
21 20 6
22 0 2
22 1 12
22 2 10
22 3 5
22 4 2
22 5 8
22 6 1
22 7 2
22 8 3
22 9 2
22 10 3
22 11 4
22 12 8
22 13 1
22 14 8
22 15 4
22 16 1
22 17 7
22 18 9
22 19 1
22 20 8
22 21 6
23 0 11
23 1 4
23 2 1
23 3 8
23 4 3
23 5 8
23 6 11
23 7 7
23 8 10
23 9 10
23 10 10
23 11 3
23 12 9
23 13 10
23 14 11
23 15 1
23 16 2
23 17 9
23 18 4
23 19 1
23 20 12
23 21 9
23 22 3
24 0 9
24 1 11
24 2 2
24 3 8
24 4 3
24 5 10
24 6 3
24 7 10
24 8 10
24 9 10
24 10 6
24 11 5
24 12 4
24 13 4
24 14 2
24 15 8
24 16 6
24 17 12
24 18 8
24 19 10
24 20 4
24 21 5
24 22 11
24 23 7
25 0 9
25 1 2
25 2 4
25 3 10
25 4 9
25 5 3
25 6 12
25 7 11
25 8 5
25 9 11
25 10 10
25 11 1
25 12 1
25 13 6
25 14 12
25 15 9
25 16 11
25 17 12
25 18 5
25 19 8
25 20 10
25 21 10
25 22 4
25 23 9
25 24 9
26 0 7
26 1 6
26 2 5
26 3 8
26 4 7
26 5 7
26 6 9
26 7 5
26 8 2
26 9 1
26 10 11
26 11 11
26 12 8
26 13 6
26 14 9
26 15 9
26 16 9
26 17 3
26 18 2
26 19 8
26 20 6
26 21 10
26 22 12
26 23 7
26 24 9
26 25 1
27 0 3
27 1 12
27 2 5
27 3 7
27 4 12
27 5 5
27 6 5
27 7 3
27 8 6
27 9 12
27 10 10
27 11 7
27 12 12
27 13 7
27 14 4
27 15 7
27 16 8
27 17 4
27 18 11
27 19 1
27 20 3
27 21 7
27 22 10
27 23 5
27 24 8
27 25 11
27 26 4
28 0 1
28 1 6
28 2 11
28 3 3
28 4 3
28 5 4
28 6 9
28 7 12
28 8 9
28 9 1
28 10 9
28 11 1
28 12 4
28 13 4
28 14 11
28 15 4
28 16 1
28 17 5
28 18 6
28 19 3
28 20 10
28 21 3
28 22 4
28 23 8
28 24 12
28 25 1
28 26 10
28 27 2
29 0 11
29 1 8
29 2 3
29 3 3
29 4 2
29 5 7
29 6 12
29 7 9
29 8 4
29 9 7
29 10 10
29 11 4
29 12 11
29 13 7
29 14 8
29 15 1
29 16 1
29 17 11
29 18 8
29 19 6
29 20 3
29 21 10
29 22 11
29 23 11
29 24 4
29 25 1
29 26 6
29 27 1
29 28 6
30 0 11
30 1 7
30 2 7
30 3 10
30 4 1
30 5 11
30 6 10
30 7 4
30 8 5
30 9 8
30 10 6
30 11 10
30 12 9
30 13 10
30 14 11
30 15 10
30 16 4
30 17 4
30 18 5
30 19 4
30 20 1
30 21 7
30 22 6
30 23 10
30 24 7
30 25 2
30 26 11
30 27 8
30 28 11
30 29 4
31 0 3
31 1 3
31 2 11
31 3 1
31 4 12
31 5 9
31 6 6
31 7 10
31 8 8
31 9 6
31 10 8
31 11 9
31 12 9
31 13 2
31 14 2
31 15 6
31 16 5
31 17 9
31 18 6
31 19 10
31 20 2
31 21 5
31 22 9
31 23 3
31 24 3
31 25 3
31 26 11
31 27 7
31 28 10
31 29 12
31 30 11
32 0 12
32 1 6
32 2 6
32 3 4
32 4 7
32 5 11
32 6 4
32 7 3
32 8 12
32 9 9
32 10 9
32 11 2
32 12 4
32 13 5
32 14 3
32 15 6
32 16 5
32 17 5
32 18 12
32 19 11
32 20 12
32 21 10
32 22 4
32 23 8
32 24 7
32 25 7
32 26 7
32 27 3
32 28 6
32 29 12
32 30 12
32 31 3
33 0 9
33 1 3
33 2 2
33 3 4
33 4 7
33 5 10
33 6 2
33 7 11
33 8 5
33 9 7
33 10 10
33 11 12
33 12 11
33 13 10
33 14 4
33 15 6
33 16 9
33 17 1
33 18 8
33 19 10
33 20 8
33 21 1
33 22 10
33 23 5
33 24 8
33 25 5
33 26 11
33 27 2
33 28 3
33 29 1
33 30 1
33 31 7
33 32 10
34 0 5
34 1 9
34 2 6
34 3 8
34 4 11
34 5 2
34 6 6
34 7 7
34 8 3
34 9 2
34 10 2
34 11 5
34 12 1
34 13 2
34 14 9
34 15 11
34 16 8
34 17 3
34 18 5
34 19 12
34 20 11
34 21 12
34 22 5
34 23 7
34 24 1
34 25 4
34 26 6
34 27 10
34 28 10
34 29 7
34 30 10
34 31 12
34 32 3
34 33 4
35 0 7
35 1 2
35 2 7
35 3 2
35 4 7
35 5 5
35 6 11
35 7 3
35 8 6
35 9 6
35 10 11
35 11 3
35 12 10
35 13 3
35 14 5
35 15 4
35 16 9
35 17 3
35 18 2
35 19 7
35 20 4
35 21 11
35 22 1
35 23 2
35 24 8
35 25 6
35 26 6
35 27 12
35 28 10
35 29 2
35 30 11
35 31 5
35 32 2
35 33 12
35 34 2
36 0 11
36 1 2
36 2 4
36 3 7
36 4 6
36 5 12
36 6 6
36 7 4
36 8 3
36 9 6
36 10 6
36 11 2
36 12 3
36 13 4
36 14 4
36 15 5
36 16 1
36 17 12
36 18 7
36 19 8
36 20 2
36 21 9
36 22 2
36 23 10
36 24 10
36 25 12
36 26 3
36 27 5
36 28 4
36 29 4
36 30 12
36 31 10
36 32 6
36 33 8
36 34 6
36 35 3
37 0 8
37 1 10
37 2 12
37 3 5
37 4 5
37 5 2
37 6 7
37 7 9
37 8 7
37 9 6
37 10 10
37 11 2
37 12 1
37 13 9
37 14 1
37 15 8
37 16 7
37 17 8
37 18 8
37 19 7
37 20 3
37 21 1
37 22 5
37 23 7
37 24 8
37 25 1
37 26 8
37 27 10
37 28 12
37 29 10
37 30 4
37 31 6
37 32 8
37 33 10
37 34 4
37 35 5
37 36 7
38 0 7
38 1 6
38 2 10
38 3 2
38 4 4
38 5 12
38 6 2
38 7 2
38 8 6
38 9 7
38 10 11
38 11 6
38 12 3
38 13 9
38 14 12
38 15 9
38 16 5
38 17 4
38 18 6
38 19 8
38 20 5
38 21 12
38 22 3
38 23 4
38 24 2
38 25 10
38 26 1
38 27 3
38 28 10
38 29 5
38 30 3
38 31 10
38 32 2
38 33 4
38 34 11
38 35 4
38 36 5
38 37 12
39 0 2
39 1 4
39 2 10
39 3 5
39 4 2
39 5 8
39 6 8
39 7 2
39 8 9
39 9 6
39 10 1
39 11 2
39 12 9
39 13 3
39 14 9
39 15 12
39 16 3
39 17 7
39 18 12
39 19 9
39 20 8
39 21 6
39 22 2
39 23 7
39 24 5
39 25 8
39 26 4
39 27 10
39 28 2
39 29 11
39 30 2
39 31 5
39 32 6
39 33 9
39 34 4
39 35 8
39 36 5
39 37 1
39 38 1
40 0 2
40 1 7
40 2 8
40 3 4
40 4 10
40 5 1
40 6 7
40 7 3
40 8 4
40 9 7
40 10 11
40 11 8
40 12 9
40 13 5
40 14 9
40 15 1
40 16 8
40 17 2
40 18 4
40 19 6
40 20 1
40 21 11
40 22 7
40 23 9
40 24 8
40 25 2
40 26 7
40 27 7
40 28 11
40 29 1
40 30 7
40 31 3
40 32 3
40 33 5
40 34 5
40 35 3
40 36 2
40 37 2
40 38 4
40 39 4
41 0 12
41 1 6
41 2 3
41 3 7
41 4 5
41 5 7
41 6 11
41 7 11
41 8 3
41 9 8
41 10 12
41 11 1
41 12 10
41 13 10
41 14 10
41 15 7
41 16 12
41 17 8
41 18 4
41 19 4
41 20 11
41 21 11
41 22 8
41 23 8
41 24 7
41 25 1
41 26 10
41 27 3
41 28 12
41 29 4
41 30 2
41 31 4
41 32 11
41 33 5
41 34 9
41 35 5
41 36 11
41 37 5
41 38 5
41 39 2
41 40 1
42 0 3
42 1 8
42 2 1
42 3 2
42 4 8
42 5 5
42 6 1
42 7 10
42 8 7
42 9 9
42 10 9
42 11 2
42 12 6
42 13 1
42 14 4
42 15 11
42 16 8
42 17 7
42 18 4
42 19 5
42 20 9
42 21 4
42 22 11
42 23 12
42 24 1
42 25 7
42 26 3
42 27 2
42 28 6
42 29 8
42 30 7
42 31 7
42 32 5
42 33 8
42 34 10
42 35 6
42 36 11
42 37 1
42 38 4
42 39 9
42 40 6
42 41 2
43 0 7
43 1 7
43 2 12
43 3 5
43 4 5
43 5 3
43 6 5
43 7 8
43 8 8
43 9 9
43 10 11
43 11 5
43 12 5
43 13 12
43 14 2
43 15 5
43 16 12
43 17 3
43 18 7
43 19 11
43 20 7
43 21 9
43 22 4
43 23 4
43 24 4
43 25 12
43 26 10
43 27 2
43 28 8
43 29 11
43 30 1
43 31 10
43 32 2
43 33 4
43 34 11
43 35 10
43 36 12
43 37 3
43 38 5
43 39 9
43 40 7
43 41 1
43 42 6
44 0 12
44 1 6
44 2 12
44 3 11
44 4 6
44 5 2
44 6 6
44 7 3
44 8 7
44 9 12
44 10 8
44 11 4
44 12 10
44 13 3
44 14 11
44 15 2
44 16 4
44 17 4
44 18 8
44 19 6
44 20 8
44 21 9
44 22 12
44 23 6
44 24 8
44 25 4
44 26 1
44 27 11
44 28 4
44 29 1
44 30 10
44 31 5
44 32 2
44 33 10
44 34 6
44 35 6
44 36 9
44 37 1
44 38 3
44 39 8
44 40 5
44 41 9
44 42 4
44 43 9
45 0 8
45 1 6
45 2 1
45 3 12
45 4 2
45 5 4
45 6 6
45 7 4
45 8 7
45 9 5
45 10 12
45 11 6
45 12 2
45 13 3
45 14 1
45 15 6
45 16 9
45 17 1
45 18 6
45 19 6
45 20 7
45 21 9
45 22 6
45 23 4
45 24 10
45 25 4
45 26 10
45 27 9
45 28 7
45 29 5
45 30 12
45 31 9
45 32 2
45 33 11
45 34 10
45 35 5
45 36 10
45 37 7
45 38 4
45 39 12
45 40 10
45 41 8
45 42 7
45 43 1
45 44 12
46 0 1
46 1 3
46 2 2
46 3 5
46 4 9
46 5 6
46 6 11
46 7 3
46 8 12
46 9 8
46 10 11
46 11 8
46 12 7
46 13 7
46 14 8
46 15 8
46 16 1
46 17 2
46 18 7
46 19 7
46 20 6
46 21 7
46 22 10
46 23 9
46 24 4
46 25 5
46 26 6
46 27 11
46 28 12
46 29 8
46 30 11
46 31 1
46 32 8
46 33 2
46 34 7
46 35 3
46 36 10
46 37 4
46 38 12
46 39 5
46 40 2
46 41 5
46 42 3
46 43 12
46 44 12
46 45 3
47 0 7
47 1 3
47 2 7
47 3 1
47 4 6
47 5 5
47 6 11
47 7 5
47 8 1
47 9 5
47 10 12
47 11 12
47 12 12
47 13 11
47 14 8
47 15 7
47 16 6
47 17 2
47 18 11
47 19 4
47 20 2
47 21 2
47 22 4
47 23 10
47 24 1
47 25 12
47 26 8
47 27 5
47 28 10
47 29 3
47 30 2
47 31 2
47 32 11
47 33 8
47 34 10
47 35 3
47 36 3
47 37 2
47 38 2
47 39 10
47 40 9
47 41 7
47 42 8
47 43 11
47 44 8
47 45 5
47 46 3
48 0 12
48 1 4
48 2 6
48 3 9
48 4 2
48 5 2
48 6 2
48 7 11
48 8 4
48 9 7
48 10 5
48 11 1
48 12 4
48 13 11
48 14 12
48 15 6
48 16 12
48 17 11
48 18 5
48 19 8
48 20 5
48 21 2
48 22 10
48 23 3
48 24 4
48 25 12
48 26 7
48 27 9
48 28 12
48 29 2
48 30 11
48 31 5
48 32 9
48 33 8
48 34 4
48 35 12
48 36 4
48 37 1
48 38 5
48 39 1
48 40 8
48 41 5
48 42 1
48 43 12
48 44 1
48 45 8
48 46 9
48 47 2
49 0 4
49 1 1
49 2 2
49 3 4
49 4 1
49 5 12
49 6 11
49 7 10
49 8 1
49 9 1
49 10 3
49 11 8
49 12 4
49 13 5
49 14 10
49 15 5
49 16 5
49 17 4
49 18 10
49 19 3
49 20 8
49 21 6
49 22 5
49 23 6
49 24 6
49 25 10
49 26 11
49 27 7
49 28 2
49 29 2
49 30 8
49 31 5
49 32 9
49 33 11
49 34 11
49 35 3
49 36 1
49 37 7
49 38 9
49 39 9
49 40 7
49 41 3
49 42 5
49 43 9
49 44 3
49 45 12
49 46 9
49 47 11
49 48 6
50 0 4
50 1 7
50 2 1
50 3 8
50 4 7
50 5 4
50 6 7
50 7 5
50 8 11
50 9 6
50 10 4
50 11 8
50 12 9
50 13 10
50 14 6
50 15 10
50 16 11
50 17 2
50 18 8
50 19 1
50 20 7
50 21 4
50 22 11
50 23 5
50 24 1
50 25 7
50 26 6
50 27 4
50 28 4
50 29 5
50 30 7
50 31 1
50 32 3
50 33 4
50 34 1
50 35 1
50 36 10
50 37 10
50 38 5
50 39 12
50 40 5
50 41 5
50 42 9
50 43 5
50 44 3
50 45 4
50 46 2
50 47 3
50 48 6
50 49 4
51 0 4
51 1 9
51 2 9
51 3 10
51 4 9
51 5 8
51 6 5
51 7 7
51 8 5
51 9 3
51 10 8
51 11 4
51 12 8
51 13 8
51 14 4
51 15 7
51 16 6
51 17 11
51 18 8
51 19 9
51 20 2
51 21 2
51 22 4
51 23 8
51 24 6
51 25 4
51 26 8
51 27 11
51 28 8
51 29 5
51 30 8
51 31 4
51 32 11
51 33 11
51 34 3
51 35 7
51 36 1
51 37 11
51 38 11
51 39 5
51 40 7
51 41 11
51 42 4
51 43 12
51 44 9
51 45 7
51 46 10
51 47 1
51 48 5
51 49 8
51 50 2
52 0 7
52 1 11
52 2 2
52 3 5
52 4 9
52 5 2
52 6 3
52 7 10
52 8 2
52 9 8
52 10 12
52 11 5
52 12 5
52 13 4
52 14 7
52 15 8
52 16 4
52 17 6
52 18 8
52 19 7
52 20 6
52 21 9
52 22 7
52 23 12
52 24 4
52 25 4
52 26 10
52 27 8
52 28 11
52 29 4
52 30 4
52 31 7
52 32 2
52 33 4
52 34 10
52 35 12
52 36 4
52 37 6
52 38 4
52 39 6
52 40 10
52 41 10
52 42 7
52 43 8
52 44 9
52 45 4
52 46 3
52 47 12
52 48 11
52 49 4
52 50 10
52 51 7
53 0 9
53 1 3
53 2 3
53 3 6
53 4 8
53 5 8
53 6 11
53 7 3
53 8 9
53 9 7
53 10 9
53 11 3
53 12 6
53 13 11
53 14 8
53 15 9
53 16 4
53 17 6
53 18 1
53 19 2
53 20 11
53 21 7
53 22 5
53 23 11
53 24 11
53 25 2
53 26 10
53 27 4
53 28 4
53 29 12
53 30 10
53 31 1
53 32 11
53 33 3
53 34 5
53 35 6
53 36 8
53 37 2
53 38 11
53 39 2
53 40 8
53 41 4
53 42 5
53 43 12
53 44 4
53 45 5
53 46 12
53 47 12
53 48 5
53 49 8
53 50 9
53 51 8
53 52 7
54 0 9
54 1 11
54 2 8
54 3 10
54 4 8
54 5 3
54 6 4
54 7 12
54 8 11
54 9 12
54 10 3
54 11 8
54 12 1
54 13 9
54 14 2
54 15 11
54 16 2
54 17 11
54 18 5
54 19 9
54 20 1
54 21 3
54 22 12
54 23 9
54 24 8
54 25 3
54 26 9
54 27 10
54 28 12
54 29 12
54 30 11
54 31 12
54 32 12
54 33 7
54 34 4
54 35 4
54 36 3
54 37 10
54 38 11
54 39 7
54 40 11
54 41 2
54 42 8
54 43 6
54 44 2
54 45 8
54 46 8
54 47 9
54 48 7
54 49 10
54 50 9
54 51 11
54 52 1
54 53 1
55 0 12
55 1 10
55 2 11
55 3 11
55 4 11
55 5 8
55 6 8
55 7 9
55 8 5
55 9 5
55 10 10
55 11 4
55 12 8
55 13 9
55 14 12
55 15 6
55 16 4
55 17 7
55 18 2
55 19 5
55 20 7
55 21 4
55 22 4
55 23 2
55 24 11
55 25 9
55 26 9
55 27 10
55 28 8
55 29 4
55 30 7
55 31 3
55 32 9
55 33 5
55 34 12
55 35 11
55 36 8
55 37 1
55 38 12
55 39 7
55 40 2
55 41 5
55 42 12
55 43 6
55 44 8
55 45 6
55 46 2
55 47 12
55 48 10
55 49 11
55 50 8
55 51 10
55 52 8
55 53 3
55 54 11
56 0 2
56 1 3
56 2 3
56 3 7
56 4 6
56 5 6
56 6 2
56 7 8
56 8 7
56 9 9
56 10 8
56 11 3
56 12 6
56 13 3
56 14 6
56 15 4
56 16 7
56 17 11
56 18 5
56 19 1
56 20 1
56 21 11
56 22 11
56 23 1
56 24 8
56 25 8
56 26 11
56 27 11
56 28 1
56 29 5
56 30 1
56 31 11
56 32 6
56 33 5
56 34 5
56 35 11
56 36 8
56 37 10
56 38 4
56 39 11
56 40 8
56 41 11
56 42 9
56 43 1
56 44 9
56 45 2
56 46 8
56 47 6
56 48 11
56 49 5
56 50 1
56 51 8
56 52 11
56 53 8
56 54 11
56 55 3
57 0 1
57 1 5
57 2 7
57 3 6
57 4 9
57 5 6
57 6 12
57 7 1
57 8 4
57 9 3
57 10 7
57 11 5
57 12 12
57 13 4
57 14 1
57 15 11
57 16 9
57 17 1
57 18 5
57 19 10
57 20 5
57 21 9
57 22 6
57 23 2
57 24 6
57 25 5
57 26 2
57 27 3
57 28 10
57 29 12
57 30 5
57 31 9
57 32 9
57 33 8
57 34 5
57 35 1
57 36 9
57 37 6
57 38 3
57 39 2
57 40 12
57 41 7
57 42 11
57 43 12
57 44 9
57 45 3
57 46 6
57 47 1
57 48 2
57 49 9
57 50 10
57 51 10
57 52 3
57 53 11
57 54 1
57 55 2
57 56 7
58 0 10
58 1 4
58 2 6
58 3 7
58 4 11
58 5 3
58 6 2
58 7 8
58 8 12
58 9 1
58 10 5
58 11 1
58 12 4
58 13 11
58 14 12
58 15 5
58 16 11
58 17 2
58 18 8
58 19 5
58 20 4
58 21 5
58 22 5
58 23 6
58 24 11
58 25 1
58 26 12
58 27 1
58 28 3
58 29 10
58 30 6
58 31 8
58 32 1
58 33 5
58 34 6
58 35 5
58 36 8
58 37 8
58 38 9
58 39 4
58 40 2
58 41 12
58 42 10
58 43 4
58 44 4
58 45 5
58 46 11
58 47 1
58 48 8
58 49 4
58 50 2
58 51 2
58 52 11
58 53 1
58 54 6
58 55 6
58 56 3
58 57 11
59 0 7
59 1 12
59 2 8
59 3 6
59 4 8
59 5 9
59 6 11
59 7 4
59 8 10
59 9 10
59 10 8
59 11 1
59 12 10
59 13 10
59 14 3
59 15 1
59 16 12
59 17 6
59 18 5
59 19 2
59 20 5
59 21 6
59 22 6
59 23 3
59 24 5
59 25 11
59 26 6
59 27 5
59 28 3
59 29 4
59 30 7
59 31 4
59 32 4
59 33 6
59 34 12
59 35 7
59 36 5
59 37 4
59 38 11
59 39 9
59 40 9
59 41 2
59 42 12
59 43 8
59 44 8
59 45 11
59 46 9
59 47 6
59 48 7
59 49 6
59 50 5
59 51 2
59 52 10
59 53 8
59 54 1
59 55 3
59 56 6
59 57 7
59 58 4
